# lmp -i lammpsDeltaNNmd.in -v pot round13R2

units                   metal
boundary                p p p
atom_style              full

#variable                pot string "round11extraHr3_8k"

bond_style harmonic
#angle_style harmonic
#dihedral_style harmonic

variable                potDir string "../../DpmdTrainPotential"
read_data               ./sys${struct}_init.data
#read_data              pt+hso3+h2o-frz_8x8_1ML_short_wrap.data
#read_data pt+hso3+h2o-frz_8x8_1ML_longHack5.data
#read_data initMDStructure0.data

# include this to add delta NNP to bond/ang/dih potentials above
plugin load libdeepmd_lmp.so
#pair_style deepmd /gpfs/u/home/XXXX/XXXXxxxx/scratch-shared/PolyGroup/AIMDtoNN/DeltaDeep/test12OTF1iter1to12deltaNoLJ/sys_all/seed_0/frozenModel.pb
pair_style deepmd ${potDir}/seed0/frozenModel.pb ${potDir}/seed1/frozenModel.pb ${potDir}/seed2/frozenModel.pb ${potDir}/seed3/frozenModel.pb out_file md.out out_freq 10 atomic relative 1.0
#pair_style deepmd ${potDir}/seed0/frozen-compress.pb ${potDir}/seed1/frozen-compress.pb ${potDir}/seed2/frozen-compress.pb ${potDir}/seed3/frozen-compress.pb out_file md.out out_freq 10 atomic relative 1.0
pair_coeff  * *    

thermo          1
thermo_style    custom step pe vol press temp 
thermo_modify	norm no


timestep            0.0001  # 0.1fs

velocity            all create 500.0 648645
fix                 0 all nvt temp 500. 500. $(100.0*dt)


dump                0 all custom 10 output.dump id type element x y z fx fy fz
dump_modify         0 element C F H O Pt S
run                 10000  #1ps
shell touch doneMDsys${struct}
