# lmp -i lammpsDeltaNNmd.in -v pot round13R2

units                   metal
boundary                p p p
atom_style              full

variable                potDir string "../../../DpmdTrainPotential"


read_data                ../../../initMDStructure${struct}.data
# read_data               pt+2so3-cn-frz_vac_500_0deg-out1.data



plugin load libdeepmd_lmp.so
pair_style deepmd ${potDir}/seed0/frozenModel.pb ${potDir}/seed1/frozenModel.pb ${potDir}/seed2/frozenModel.pb ${potDir}/seed3/frozenModel.pb out_file md.out out_freq 10 atomic relative 1.0
pair_coeff  * *

thermo          1
thermo_style    custom step pe vol press temp 
thermo_modify	norm no


timestep            0.0005  # 0.5fs

velocity            all create 500.0 ${seed}
fix                 0 all nvt temp 500. 500. $(100.0*dt)

#velocity            all create 100.0 52345
#fix                 0 all nve

dump                0 all custom 1 output.dump id type element x y z fx fy fz
dump_modify         0 element C F H O Pt S
run                 10000  #
